
-17.4
-17.2
-17.0
-16.8
-16.8
-16.7
-16.6
-16.5
-16.2
-16.0
-16.0
-16.0
-15.9
-15.8
-15.8
-15.8
-15.3
-15.3
-15.3
-15.3
-15.3
-15.3
-15.3
-15.3
-15.3
-15.3
-15.3
-15.3
-15.3
-15.3
-15.3
-15.3
-15.3
-15.3